
Gurobi 7.0.1 (linux64) logging started Sun Jul  2 21:28:29 2017

Optimize a model with 21691 rows, 14464 columns and 65448 nonzeros
Variable types: 0 continuous, 14464 integer (14464 binary)
Coefficient statistics:
  Matrix range     [1e+00, 9e+00]
  Objective range  [1e+00, 1e+00]
  Bounds range     [1e+00, 1e+00]
  RHS range        [1e+00, 5e+01]
Presolve removed 20815 rows and 13584 columns
Presolve time: 0.05s
Presolved: 876 rows, 880 columns, 6069 nonzeros
Variable types: 0 continuous, 880 integer (880 binary)

Root relaxation: objective 4.918333e+01, 84 iterations, 0.00 seconds

    Nodes    |    Current Node    |     Objective Bounds      |     Work
 Expl Unexpl |  Obj  Depth IntInf | Incumbent    BestBd   Gap | It/Node Time

     0     0   49.18333    0   60          -   49.18333      -     -    0s
     0     0   49.00000    0    2          -   49.00000      -     -    0s
     0     0   49.00000    0    4          -   49.00000      -     -    0s
     0     0   49.00000    0    4          -   49.00000      -     -    0s
     0     0   49.00000    0    4          -   49.00000      -     -    0s
     0     0   49.00000    0    4          -   49.00000      -     -    0s
     0     2   49.00000    0    4          -   49.00000      -     -    0s
H  445   139                      36.0000000   38.00000  5.56%   4.0    1s
H  505    61                      37.0000000   38.00000  2.70%   3.8    1s

Cutting planes:
  Gomory: 2
  MIR: 1
  Lazy constraints: 245

Explored 1003 nodes (3591 simplex iterations) in 2.47 seconds
Thread count was 12 (of 12 available processors)

Solution count 2: 37 36 
Pool objective bound 37

Optimal solution found (tolerance 1.00e-04)
Best objective 3.700000000000e+01, best bound 3.700000000000e+01, gap 0.0000%
Optimize a model with 21691 rows, 14464 columns and 65448 nonzeros
Variable types: 0 continuous, 14464 integer (14464 binary)
Coefficient statistics:
  Matrix range     [1e+00, 9e+00]
  Objective range  [3e-01, 7e-01]
  Bounds range     [1e+00, 1e+00]
  RHS range        [1e+00, 5e+01]
Presolve removed 20815 rows and 13584 columns
Presolve time: 0.03s
Presolved: 876 rows, 880 columns, 6069 nonzeros

Loaded MIP start with objective 4.44089e-16

Variable types: 0 continuous, 880 integer (880 binary)

Root relaxation: objective 1.218333e+01, 86 iterations, 0.00 seconds

    Nodes    |    Current Node    |     Objective Bounds      |     Work
 Expl Unexpl |  Obj  Depth IntInf | Incumbent    BestBd   Gap | It/Node Time

     0     0   12.18333    0   60    0.00000   12.18333      -     -    0s
     0     0   12.00000    0    2    0.00000   12.00000      -     -    0s
     0     0   12.00000    0    4    0.00000   12.00000      -     -    0s
     0     0   12.00000    0    2    0.00000   12.00000      -     -    0s
     0     0   12.00000    0    2    0.00000   12.00000      -     -    0s
     0     2   12.00000    0    2    0.00000   12.00000      -     -    0s
*  164    65              11       3.1000000    4.10000  32.3%   3.5    1s
H  185    22                       3.8400000    4.10000  6.77%   3.2    1s

Cutting planes:
  Gomory: 2
  Lazy constraints: 97

Explored 223 nodes (847 simplex iterations) in 1.16 seconds
Thread count was 12 (of 12 available processors)

Solution count 3: 3.84 3.1 4.44089e-16 
Pool objective bound 3.84

Optimal solution found (tolerance 1.00e-04)
Best objective 3.840000000000e+00, best bound 3.840000000000e+00, gap 0.0000%
Optimize a model with 21691 rows, 14464 columns and 65448 nonzeros
Variable types: 0 continuous, 14464 integer (14464 binary)
Coefficient statistics:
  Matrix range     [1e+00, 9e+00]
  Objective range  [1e-01, 9e-01]
  Bounds range     [1e+00, 1e+00]
  RHS range        [1e+00, 5e+01]
Presolve removed 20815 rows and 13584 columns
Presolve time: 0.03s
Presolved: 876 rows, 880 columns, 6069 nonzeros

Loaded MIP start with objective 1.22125e-15

Variable types: 0 continuous, 880 integer (880 binary)

Root relaxation: objective 6.536275e+00, 86 iterations, 0.00 seconds

    Nodes    |    Current Node    |     Objective Bounds      |     Work
 Expl Unexpl |  Obj  Depth IntInf | Incumbent    BestBd   Gap | It/Node Time

     0     0    6.53627    0   60    0.00000    6.53627      -     -    0s
     0     0    6.35294    0    2    0.00000    6.35294      -     -    0s
     0     0    6.35294    0    4    0.00000    6.35294      -     -    0s
     0     0    6.35294    0    2    0.00000    6.35294      -     -    0s
     0     0    6.35294    0    2    0.00000    6.35294      -     -    0s
     0     2    6.35294    0    2    0.00000    6.35294      -     -    0s
*  252    44              14       0.5294118    0.96078  81.5%   3.6    0s

Cutting planes:
  Gomory: 2
  Zero half: 1
  Lazy constraints: 50

Explored 341 nodes (1236 simplex iterations) in 0.81 seconds
Thread count was 12 (of 12 available processors)

Solution count 2: 0.529412 1.22125e-15 
Pool objective bound 0.529412

Optimal solution found (tolerance 1.00e-04)
Best objective 5.294117647059e-01, best bound 5.294117647059e-01, gap 0.0000%
Optimize a model with 21691 rows, 14464 columns and 65448 nonzeros
Variable types: 0 continuous, 14464 integer (14464 binary)
Coefficient statistics:
  Matrix range     [1e+00, 9e+00]
  Objective range  [1e-01, 9e-01]
  Bounds range     [1e+00, 1e+00]
  RHS range        [1e+00, 5e+01]
Presolve removed 20815 rows and 13584 columns
Presolve time: 0.03s
Presolved: 876 rows, 880 columns, 6069 nonzeros

Loaded MIP start with objective -0

Variable types: 0 continuous, 880 integer (880 binary)

Root relaxation: objective 5.433333e+00, 86 iterations, 0.00 seconds

    Nodes    |    Current Node    |     Objective Bounds      |     Work
 Expl Unexpl |  Obj  Depth IntInf | Incumbent    BestBd   Gap | It/Node Time

     0     0    5.43333    0   60   -0.00000    5.43333      -     -    0s
     0     0    5.25000    0    2   -0.00000    5.25000      -     -    0s
     0     0    5.25000    0    4   -0.00000    5.25000      -     -    0s
     0     0    5.25000    0    2   -0.00000    5.25000      -     -    0s
     0     0    5.25000    0    2   -0.00000    5.25000      -     -    0s
     0     2    5.25000    0    2   -0.00000    5.25000      -     -    0s

Cutting planes:
  Gomory: 2
  Zero half: 1
  Lazy constraints: 23

Explored 62 nodes (642 simplex iterations) in 0.55 seconds
Thread count was 12 (of 12 available processors)

Solution count 1: -0 
Pool objective bound -0

Optimal solution found (tolerance 1.00e-04)
Best objective -0.000000000000e+00, best bound -0.000000000000e+00, gap -
